NAME 
ROWS
 N  OBJ
 E  R0      
 G  R1      
 G  R2      
 E  R3      
 E  R4      
 E  R5      
 E  R6      
 G  R7      
 G  R8      
 E  R9      
 G  R10     
 G  R11     
 G  R12     
 G  R13     
 G  R14     
 G  R15     
 E  R16     
 E  R17     
 E  R18     
 E  R19     
 G  R20     
 G  R21     
 E  R22     
 G  R23     
 G  R24     
 G  R25     
 G  R26     
 G  R27     
 G  R28     
 E  R29     
 E  R30     
 E  R31     
 E  R32     
 G  R33     
 G  R34     
 E  R35     
 G  R36     
 G  R37     
 G  R38     
 G  R39     
 G  R40     
 G  R41     
 E  R42     
 E  R43     
 E  R44     
 E  R45     
 G  R46     
 G  R47     
 E  R48     
 G  R49     
 G  R50     
 G  R51     
 G  R52     
 G  R53     
 G  R54     
 E  R55     
 E  R56     
 E  R57     
 E  R58     
 G  R59     
 G  R60     
 E  R61     
 G  R62     
 G  R63     
 G  R64     
 G  R65     
 G  R66     
 G  R67     
 E  R68     
 E  R69     
 E  R70     
 E  R71     
 G  R72     
 G  R73     
 E  R74     
 G  R75     
 G  R76     
 G  R77     
 G  R78     
 E  R79     
 E  R80     
 E  R81     
 E  R82     
 E  R83     
 E  R84     
 G  R85     
 G  R86     
 E  R87     
 E  R88     
 E  R89     
 E  R90     
 G  R91     
 G  R92     
 E  R93     
 G  R94     
 G  R95     
 G  R96     
 G  R97     
 G  R98     
 G  R99     
 E  R100    
 E  R101    
 E  R102    
 E  R103    
 G  R104    
 G  R105    
 E  R106    
 G  R107    
 G  R108    
 G  R109    
 G  R110    
 G  R111    
 G  R112    
 E  R113    
 E  R114    
 E  R115    
 E  R116    
 G  R117    
 G  R118    
 E  R119    
 G  R120    
 G  R121    
 G  R122    
 G  R123    
 G  R124    
 G  R125    
 E  R126    
 E  R127    
 E  R128    
 E  R129    
 G  R130    
 G  R131    
 E  R132    
 G  R133    
 G  R134    
 G  R135    
 G  R136    
 G  R137    
 G  R138    
 E  R139    
 E  R140    
 E  R141    
 E  R142    
 G  R143    
 G  R144    
 E  R145    
 G  R146    
 G  R147    
 G  R148    
 G  R149    
 G  R150    
 G  R151    
 E  R152    
 E  R153    
 E  R154    
 E  R155    
 G  R156    
 G  R157    
 E  R158    
 G  R159    
 G  R160    
 G  R161    
 G  R162    
 E  R163    
 E  R164    
 E  R165    
 E  R166    
 E  R167    
COLUMNS
    Y_X[1,1]  R0        -0.9
    Y_X[1,1]  R1        -0.1
    Y_X[1,1]  R2        0.9
    Y_X[1,1]  R14       -0.1
    Y_X[1,1]  R15       0.9
    Y_X[1,1]  R27       -0.1
    Y_X[1,1]  R28       0.9
    Y_X[1,1]  R40       -0.1
    Y_X[1,1]  R41       0.9
    Y_X[1,1]  R53       -0.1
    Y_X[1,1]  R54       0.9
    Y_X[1,1]  R66       -0.1
    Y_X[1,1]  R67       0.9
    Y_X[1,1]  R84       -0.9
    Y_X[1,1]  R85       -0.1
    Y_X[1,1]  R86       0.9
    Y_X[1,1]  R98       -0.1
    Y_X[1,1]  R99       0.9
    Y_X[1,1]  R111      -0.1
    Y_X[1,1]  R112      0.9
    Y_X[1,1]  R124      -0.1
    Y_X[1,1]  R125      0.9
    Y_X[1,1]  R137      -0.1
    Y_X[1,1]  R138      0.9
    Y_X[1,1]  R150      -0.1
    Y_X[1,1]  R151      0.9
    Y_X[1,2]  OBJ       0
    Y_X[1,3]  R4        -1
    Y_X[1,3]  R17       -1
    Y_X[1,3]  R30       -1
    Y_X[1,3]  R43       -1
    Y_X[1,3]  R56       -1
    Y_X[1,3]  R69       -1
    Y_X[1,3]  R88       -1
    Y_X[1,3]  R101      -1
    Y_X[1,3]  R114      -1
    Y_X[1,3]  R127      -1
    Y_X[1,3]  R140      -1
    Y_X[1,3]  R153      -1
    Y_X[2,1]  R84       -0.9
    Y_X[2,1]  R85       -0.1
    Y_X[2,1]  R86       0.9
    Y_X[2,1]  R98       -0.1
    Y_X[2,1]  R99       0.9
    Y_X[2,1]  R111      -0.1
    Y_X[2,1]  R112      0.9
    Y_X[2,1]  R124      -0.1
    Y_X[2,1]  R125      0.9
    Y_X[2,1]  R137      -0.1
    Y_X[2,1]  R138      0.9
    Y_X[2,1]  R150      -0.1
    Y_X[2,1]  R151      0.9
    Y_X[2,2]  OBJ       0
    Y_X[2,3]  R88       -1
    Y_X[2,3]  R101      -1
    Y_X[2,3]  R114      -1
    Y_X[2,3]  R127      -1
    Y_X[2,3]  R140      -1
    Y_X[2,3]  R153      -1
    U_E1[1,1]  R10       100
    U_E1[1,1]  R11       -100
    U_E1[2,1]  R23       100
    U_E1[2,1]  R24       -100
    U_E1[3,1]  R36       100
    U_E1[3,1]  R37       -100
    U_E1[4,1]  R49       100
    U_E1[4,1]  R50       -100
    U_E1[5,1]  R62       100
    U_E1[5,1]  R63       -100
    U_E1[6,1]  R75       100
    U_E1[6,1]  R76       -100
    U_E2[1,1]  R94       150
    U_E2[1,1]  R95       -150
    U_E2[2,1]  R107      150
    U_E2[2,1]  R108      -150
    U_E2[3,1]  R120      150
    U_E2[3,1]  R121      -150
    U_E2[4,1]  R133      150
    U_E2[4,1]  R134      -150
    U_E2[5,1]  R146      150
    U_E2[5,1]  R147      -150
    U_E2[6,1]  R159      150
    U_E2[6,1]  R160      -150
    U_G1[1,1]  R12       260
    U_G1[1,1]  R13       -260
    U_G1[2,1]  R25       260
    U_G1[2,1]  R26       -260
    U_G1[3,1]  R38       260
    U_G1[3,1]  R39       -260
    U_G1[4,1]  R51       260
    U_G1[4,1]  R52       -260
    U_G1[5,1]  R64       260
    U_G1[5,1]  R65       -260
    U_G1[6,1]  R77       260
    U_G1[6,1]  R78       -260
    U_G2[1,1]  R96       380
    U_G2[1,1]  R97       -380
    U_G2[2,1]  R109      380
    U_G2[2,1]  R110      -380
    U_G2[3,1]  R122      380
    U_G2[3,1]  R123      -380
    U_G2[4,1]  R135      380
    U_G2[4,1]  R136      -380
    U_G2[5,1]  R148      380
    U_G2[5,1]  R149      -380
    U_G2[6,1]  R161      380
    U_G2[6,1]  R162      -380
    Y_PVES1[1,1]  R3        1
    Y_PVES1[1,1]  R11       -1
    Y_PVES1[1,1]  R79       -0.85
    Y_PVES1[2,1]  R16       1
    Y_PVES1[2,1]  R24       -1
    Y_PVES1[2,1]  R80       -0.85
    Y_PVES1[3,1]  R29       1
    Y_PVES1[3,1]  R37       -1
    Y_PVES1[3,1]  R81       -0.85
    Y_PVES1[4,1]  R42       1
    Y_PVES1[4,1]  R50       -1
    Y_PVES1[4,1]  R82       -0.85
    Y_PVES1[5,1]  R55       1
    Y_PVES1[5,1]  R63       -1
    Y_PVES1[5,1]  R83       -0.85
    Y_PVES1[6,1]  R68       1
    Y_PVES1[6,1]  R76       -1
    Y_PVES2[1,1]  R87       1
    Y_PVES2[1,1]  R95       -1
    Y_PVES2[1,1]  R163      -0.85
    Y_PVES2[2,1]  R100      1
    Y_PVES2[2,1]  R108      -1
    Y_PVES2[2,1]  R164      -0.85
    Y_PVES2[3,1]  R113      1
    Y_PVES2[3,1]  R121      -1
    Y_PVES2[3,1]  R165      -0.85
    Y_PVES2[4,1]  R126      1
    Y_PVES2[4,1]  R134      -1
    Y_PVES2[4,1]  R166      -0.85
    Y_PVES2[5,1]  R139      1
    Y_PVES2[5,1]  R147      -1
    Y_PVES2[5,1]  R167      -0.85
    Y_PVES2[6,1]  R152      1
    Y_PVES2[6,1]  R160      -1
    Y_DGES1[1,1]  OBJ       7.8214285714285721e+00
    Y_DGES1[1,1]  R4        1
    Y_DGES1[1,1]  R11       -1
    Y_DGES1[1,1]  R79       -0.85
    Y_DGES1[2,1]  OBJ       7.8214285714285721e+00
    Y_DGES1[2,1]  R17       1
    Y_DGES1[2,1]  R24       -1
    Y_DGES1[2,1]  R80       -0.85
    Y_DGES1[3,1]  OBJ       7.8214285714285721e+00
    Y_DGES1[3,1]  R30       1
    Y_DGES1[3,1]  R37       -1
    Y_DGES1[3,1]  R81       -0.85
    Y_DGES1[4,1]  OBJ       7.8214285714285721e+00
    Y_DGES1[4,1]  R43       1
    Y_DGES1[4,1]  R50       -1
    Y_DGES1[4,1]  R82       -0.85
    Y_DGES1[5,1]  OBJ       7.8214285714285721e+00
    Y_DGES1[5,1]  R56       1
    Y_DGES1[5,1]  R63       -1
    Y_DGES1[5,1]  R83       -0.85
    Y_DGES1[6,1]  OBJ       7.8214285714285721e+00
    Y_DGES1[6,1]  R69       1
    Y_DGES1[6,1]  R76       -1
    Y_DGES2[1,1]  OBJ       7.8214285714285721e+00
    Y_DGES2[1,1]  R88       1
    Y_DGES2[1,1]  R95       -1
    Y_DGES2[1,1]  R163      -0.85
    Y_DGES2[2,1]  OBJ       7.8214285714285721e+00
    Y_DGES2[2,1]  R101      1
    Y_DGES2[2,1]  R108      -1
    Y_DGES2[2,1]  R164      -0.85
    Y_DGES2[3,1]  OBJ       7.8214285714285721e+00
    Y_DGES2[3,1]  R114      1
    Y_DGES2[3,1]  R121      -1
    Y_DGES2[3,1]  R165      -0.85
    Y_DGES2[4,1]  OBJ       7.8214285714285721e+00
    Y_DGES2[4,1]  R127      1
    Y_DGES2[4,1]  R134      -1
    Y_DGES2[4,1]  R166      -0.85
    Y_DGES2[5,1]  OBJ       7.8214285714285721e+00
    Y_DGES2[5,1]  R140      1
    Y_DGES2[5,1]  R147      -1
    Y_DGES2[5,1]  R167      -0.85
    Y_DGES2[6,1]  OBJ       7.8214285714285721e+00
    Y_DGES2[6,1]  R153      1
    Y_DGES2[6,1]  R160      -1
    Y_GridES1[1,1]  OBJ       2.7877806122448980e+00
    Y_GridES1[1,1]  R11       -1
    Y_GridES1[1,1]  R13       -1
    Y_GridES1[1,1]  R79       -0.68
    Y_GridES1[2,1]  OBJ       2.7877806122448980e+00
    Y_GridES1[2,1]  R24       -1
    Y_GridES1[2,1]  R26       -1
    Y_GridES1[2,1]  R80       -0.68
    Y_GridES1[3,1]  OBJ       2.7877806122448980e+00
    Y_GridES1[3,1]  R37       -1
    Y_GridES1[3,1]  R39       -1
    Y_GridES1[3,1]  R81       -0.68
    Y_GridES1[4,1]  OBJ       2.7877806122448980e+00
    Y_GridES1[4,1]  R50       -1
    Y_GridES1[4,1]  R52       -1
    Y_GridES1[4,1]  R82       -0.68
    Y_GridES1[5,1]  OBJ       2.7877806122448980e+00
    Y_GridES1[5,1]  R63       -1
    Y_GridES1[5,1]  R65       -1
    Y_GridES1[5,1]  R83       -0.68
    Y_GridES1[6,1]  OBJ       2.7877806122448980e+00
    Y_GridES1[6,1]  R76       -1
    Y_GridES1[6,1]  R78       -1
    Y_GridES2[1,1]  OBJ       2.7877806122448980e+00
    Y_GridES2[1,1]  R95       -1
    Y_GridES2[1,1]  R97       -1
    Y_GridES2[1,1]  R163      -0.68
    Y_GridES2[2,1]  OBJ       2.7877806122448980e+00
    Y_GridES2[2,1]  R108      -1
    Y_GridES2[2,1]  R110      -1
    Y_GridES2[2,1]  R164      -0.68
    Y_GridES2[3,1]  OBJ       2.7877806122448980e+00
    Y_GridES2[3,1]  R121      -1
    Y_GridES2[3,1]  R123      -1
    Y_GridES2[3,1]  R165      -0.68
    Y_GridES2[4,1]  OBJ       2.7877806122448980e+00
    Y_GridES2[4,1]  R134      -1
    Y_GridES2[4,1]  R136      -1
    Y_GridES2[4,1]  R166      -0.68
    Y_GridES2[5,1]  OBJ       2.7877806122448980e+00
    Y_GridES2[5,1]  R147      -1
    Y_GridES2[5,1]  R149      -1
    Y_GridES2[5,1]  R167      -0.68
    Y_GridES2[6,1]  OBJ       2.7877806122448980e+00
    Y_GridES2[6,1]  R160      -1
    Y_GridES2[6,1]  R162      -1
    Y_PVL1[1,1]  R3        1
    Y_PVL1[1,1]  R5        -0.9
    Y_PVL1[2,1]  R16       1
    Y_PVL1[2,1]  R18       -0.9
    Y_PVL1[3,1]  R29       1
    Y_PVL1[3,1]  R31       -0.9
    Y_PVL1[4,1]  R42       1
    Y_PVL1[4,1]  R44       -0.9
    Y_PVL1[5,1]  R55       1
    Y_PVL1[5,1]  R57       -0.9
    Y_PVL1[6,1]  R68       1
    Y_PVL1[6,1]  R70       -0.9
    Y_PVL2[1,1]  R87       1
    Y_PVL2[1,1]  R89       -0.9
    Y_PVL2[2,1]  R100      1
    Y_PVL2[2,1]  R102      -0.9
    Y_PVL2[3,1]  R113      1
    Y_PVL2[3,1]  R115      -0.9
    Y_PVL2[4,1]  R126      1
    Y_PVL2[4,1]  R128      -0.9
    Y_PVL2[5,1]  R139      1
    Y_PVL2[5,1]  R141      -0.9
    Y_PVL2[6,1]  R152      1
    Y_PVL2[6,1]  R154      -0.9
    Y_DGL1[1,1]  OBJ       7.8214285714285721e+00
    Y_DGL1[1,1]  R4        1
    Y_DGL1[1,1]  R5        -0.9
    Y_DGL1[2,1]  OBJ       7.8214285714285721e+00
    Y_DGL1[2,1]  R17       1
    Y_DGL1[2,1]  R18       -0.9
    Y_DGL1[3,1]  OBJ       7.8214285714285721e+00
    Y_DGL1[3,1]  R30       1
    Y_DGL1[3,1]  R31       -0.9
    Y_DGL1[4,1]  OBJ       7.8214285714285721e+00
    Y_DGL1[4,1]  R43       1
    Y_DGL1[4,1]  R44       -0.9
    Y_DGL1[5,1]  OBJ       7.8214285714285721e+00
    Y_DGL1[5,1]  R56       1
    Y_DGL1[5,1]  R57       -0.9
    Y_DGL1[6,1]  OBJ       7.8214285714285721e+00
    Y_DGL1[6,1]  R69       1
    Y_DGL1[6,1]  R70       -0.9
    Y_DGL2[1,1]  OBJ       7.8214285714285721e+00
    Y_DGL2[1,1]  R88       1
    Y_DGL2[1,1]  R89       -0.9
    Y_DGL2[2,1]  OBJ       7.8214285714285721e+00
    Y_DGL2[2,1]  R101      1
    Y_DGL2[2,1]  R102      -0.9
    Y_DGL2[3,1]  OBJ       7.8214285714285721e+00
    Y_DGL2[3,1]  R114      1
    Y_DGL2[3,1]  R115      -0.9
    Y_DGL2[4,1]  OBJ       7.8214285714285721e+00
    Y_DGL2[4,1]  R127      1
    Y_DGL2[4,1]  R128      -0.9
    Y_DGL2[5,1]  OBJ       7.8214285714285721e+00
    Y_DGL2[5,1]  R140      1
    Y_DGL2[5,1]  R141      -0.9
    Y_DGL2[6,1]  OBJ       7.8214285714285721e+00
    Y_DGL2[6,1]  R153      1
    Y_DGL2[6,1]  R154      -0.9
    Y_ESL1[1,1]  R5        -0.9
    Y_ESL1[1,1]  R10       -1
    Y_ESL1[1,1]  R79       1.0588235294117647e+00
    Y_ESL1[2,1]  R18       -0.9
    Y_ESL1[2,1]  R23       -1
    Y_ESL1[2,1]  R80       1.0588235294117647e+00
    Y_ESL1[3,1]  R31       -0.9
    Y_ESL1[3,1]  R36       -1
    Y_ESL1[3,1]  R81       1.0588235294117647e+00
    Y_ESL1[4,1]  R44       -0.9
    Y_ESL1[4,1]  R49       -1
    Y_ESL1[4,1]  R82       1.0588235294117647e+00
    Y_ESL1[5,1]  R57       -0.9
    Y_ESL1[5,1]  R62       -1
    Y_ESL1[5,1]  R83       1.0588235294117647e+00
    Y_ESL1[6,1]  R70       -0.9
    Y_ESL1[6,1]  R75       -1
    Y_ESL2[1,1]  R89       -0.9
    Y_ESL2[1,1]  R94       -1
    Y_ESL2[1,1]  R163      1.0588235294117647e+00
    Y_ESL2[2,1]  R102      -0.9
    Y_ESL2[2,1]  R107      -1
    Y_ESL2[2,1]  R164      1.0588235294117647e+00
    Y_ESL2[3,1]  R115      -0.9
    Y_ESL2[3,1]  R120      -1
    Y_ESL2[3,1]  R165      1.0588235294117647e+00
    Y_ESL2[4,1]  R128      -0.9
    Y_ESL2[4,1]  R133      -1
    Y_ESL2[4,1]  R166      1.0588235294117647e+00
    Y_ESL2[5,1]  R141      -0.9
    Y_ESL2[5,1]  R146      -1
    Y_ESL2[5,1]  R167      1.0588235294117647e+00
    Y_ESL2[6,1]  R154      -0.9
    Y_ESL2[6,1]  R159      -1
    Y_GridL1[1,1]  R5        -1
    Y_GridL1[1,1]  R13       -1
    Y_GridL1[2,1]  R18       -1
    Y_GridL1[2,1]  R26       -1
    Y_GridL1[3,1]  R31       -1
    Y_GridL1[3,1]  R39       -1
    Y_GridL1[4,1]  R44       -1
    Y_GridL1[4,1]  R52       -1
    Y_GridL1[5,1]  R57       -1
    Y_GridL1[5,1]  R65       -1
    Y_GridL1[6,1]  R70       -1
    Y_GridL1[6,1]  R78       -1
    Y_GridL2[1,1]  R89       -1
    Y_GridL2[1,1]  R97       -1
    Y_GridL2[2,1]  R102      -1
    Y_GridL2[2,1]  R110      -1
    Y_GridL2[3,1]  R115      -1
    Y_GridL2[3,1]  R123      -1
    Y_GridL2[4,1]  R128      -1
    Y_GridL2[4,1]  R136      -1
    Y_GridL2[5,1]  R141      -1
    Y_GridL2[5,1]  R149      -1
    Y_GridL2[6,1]  R154      -1
    Y_GridL2[6,1]  R162      -1
    Y_PVCur1[1,1]  OBJ       1.3938903061224490e+00
    Y_PVCur1[1,1]  R3        1
    Y_PVCur1[2,1]  OBJ       1.3938903061224490e+00
    Y_PVCur1[2,1]  R16       1
    Y_PVCur1[3,1]  OBJ       1.3938903061224490e+00
    Y_PVCur1[3,1]  R29       1
    Y_PVCur1[4,1]  OBJ       1.3938903061224490e+00
    Y_PVCur1[4,1]  R42       1
    Y_PVCur1[5,1]  OBJ       1.3938903061224490e+00
    Y_PVCur1[5,1]  R55       1
    Y_PVCur1[6,1]  OBJ       1.3938903061224490e+00
    Y_PVCur1[6,1]  R68       1
    Y_PVCur2[1,1]  OBJ       1.3938903061224490e+00
    Y_PVCur2[1,1]  R87       1
    Y_PVCur2[2,1]  OBJ       1.3938903061224490e+00
    Y_PVCur2[2,1]  R100      1
    Y_PVCur2[3,1]  OBJ       1.3938903061224490e+00
    Y_PVCur2[3,1]  R113      1
    Y_PVCur2[4,1]  OBJ       1.3938903061224490e+00
    Y_PVCur2[4,1]  R126      1
    Y_PVCur2[5,1]  OBJ       1.3938903061224490e+00
    Y_PVCur2[5,1]  R139      1
    Y_PVCur2[6,1]  OBJ       1.3938903061224490e+00
    Y_PVCur2[6,1]  R152      1
    Y_DGCur1[1,1]  OBJ       9.21531887755102
    Y_DGCur1[1,1]  R4        1
    Y_DGCur1[2,1]  OBJ       9.21531887755102
    Y_DGCur1[2,1]  R17       1
    Y_DGCur1[3,1]  OBJ       9.21531887755102
    Y_DGCur1[3,1]  R30       1
    Y_DGCur1[4,1]  OBJ       9.21531887755102
    Y_DGCur1[4,1]  R43       1
    Y_DGCur1[5,1]  OBJ       9.21531887755102
    Y_DGCur1[5,1]  R56       1
    Y_DGCur1[6,1]  OBJ       9.21531887755102
    Y_DGCur1[6,1]  R69       1
    Y_DGCur2[1,1]  OBJ       9.21531887755102
    Y_DGCur2[1,1]  R88       1
    Y_DGCur2[2,1]  OBJ       9.21531887755102
    Y_DGCur2[2,1]  R101      1
    Y_DGCur2[3,1]  OBJ       9.21531887755102
    Y_DGCur2[3,1]  R114      1
    Y_DGCur2[4,1]  OBJ       9.21531887755102
    Y_DGCur2[4,1]  R127      1
    Y_DGCur2[5,1]  OBJ       9.21531887755102
    Y_DGCur2[5,1]  R140      1
    Y_DGCur2[6,1]  OBJ       9.21531887755102
    Y_DGCur2[6,1]  R153      1
    Y_DGGrid1[1,1]  OBJ       -1.3938903061224490e+00
    Y_DGGrid1[1,1]  R3        1
    Y_DGGrid1[1,1]  R12       -1
    Y_DGGrid1[2,1]  OBJ       -1.3938903061224490e+00
    Y_DGGrid1[2,1]  R16       1
    Y_DGGrid1[2,1]  R25       -1
    Y_DGGrid1[3,1]  OBJ       -1.3938903061224490e+00
    Y_DGGrid1[3,1]  R29       1
    Y_DGGrid1[3,1]  R38       -1
    Y_DGGrid1[4,1]  OBJ       -1.3938903061224490e+00
    Y_DGGrid1[4,1]  R42       1
    Y_DGGrid1[4,1]  R51       -1
    Y_DGGrid1[5,1]  OBJ       -1.3938903061224490e+00
    Y_DGGrid1[5,1]  R55       1
    Y_DGGrid1[5,1]  R64       -1
    Y_DGGrid1[6,1]  OBJ       -1.3938903061224490e+00
    Y_DGGrid1[6,1]  R68       1
    Y_DGGrid1[6,1]  R77       -1
    Y_DGGrid2[1,1]  OBJ       -1.3938903061224490e+00
    Y_DGGrid2[1,1]  R87       1
    Y_DGGrid2[1,1]  R96       -1
    Y_DGGrid2[2,1]  OBJ       -1.3938903061224490e+00
    Y_DGGrid2[2,1]  R100      1
    Y_DGGrid2[2,1]  R109      -1
    Y_DGGrid2[3,1]  OBJ       -1.3938903061224490e+00
    Y_DGGrid2[3,1]  R113      1
    Y_DGGrid2[3,1]  R122      -1
    Y_DGGrid2[4,1]  OBJ       -1.3938903061224490e+00
    Y_DGGrid2[4,1]  R126      1
    Y_DGGrid2[4,1]  R135      -1
    Y_DGGrid2[5,1]  OBJ       -1.3938903061224490e+00
    Y_DGGrid2[5,1]  R139      1
    Y_DGGrid2[5,1]  R148      -1
    Y_DGGrid2[6,1]  OBJ       -1.3938903061224490e+00
    Y_DGGrid2[6,1]  R152      1
    Y_DGGrid2[6,1]  R161      -1
    Y_PVGrid1[1,1]  OBJ       6.4275382653061230e+00
    Y_PVGrid1[1,1]  R4        1
    Y_PVGrid1[1,1]  R12       -1
    Y_PVGrid1[2,1]  OBJ       6.4275382653061230e+00
    Y_PVGrid1[2,1]  R17       1
    Y_PVGrid1[2,1]  R25       -1
    Y_PVGrid1[3,1]  OBJ       6.4275382653061230e+00
    Y_PVGrid1[3,1]  R30       1
    Y_PVGrid1[3,1]  R38       -1
    Y_PVGrid1[4,1]  OBJ       6.4275382653061230e+00
    Y_PVGrid1[4,1]  R43       1
    Y_PVGrid1[4,1]  R51       -1
    Y_PVGrid1[5,1]  OBJ       6.4275382653061230e+00
    Y_PVGrid1[5,1]  R56       1
    Y_PVGrid1[5,1]  R64       -1
    Y_PVGrid1[6,1]  OBJ       6.4275382653061230e+00
    Y_PVGrid1[6,1]  R69       1
    Y_PVGrid1[6,1]  R77       -1
    Y_PVGrid2[1,1]  OBJ       6.4275382653061230e+00
    Y_PVGrid2[1,1]  R88       1
    Y_PVGrid2[1,1]  R96       -1
    Y_PVGrid2[2,1]  OBJ       6.4275382653061230e+00
    Y_PVGrid2[2,1]  R101      1
    Y_PVGrid2[2,1]  R109      -1
    Y_PVGrid2[3,1]  OBJ       6.4275382653061230e+00
    Y_PVGrid2[3,1]  R114      1
    Y_PVGrid2[3,1]  R122      -1
    Y_PVGrid2[4,1]  OBJ       6.4275382653061230e+00
    Y_PVGrid2[4,1]  R127      1
    Y_PVGrid2[4,1]  R135      -1
    Y_PVGrid2[5,1]  OBJ       6.4275382653061230e+00
    Y_PVGrid2[5,1]  R140      1
    Y_PVGrid2[5,1]  R148      -1
    Y_PVGrid2[6,1]  OBJ       6.4275382653061230e+00
    Y_PVGrid2[6,1]  R153      1
    Y_PVGrid2[6,1]  R161      -1
    Y_ESGrid1[1,1]  OBJ       -1.3938903061224490e+00
    Y_ESGrid1[1,1]  R10       -1
    Y_ESGrid1[1,1]  R12       -1
    Y_ESGrid1[1,1]  R79       1.0588235294117647e+00
    Y_ESGrid1[2,1]  OBJ       -1.3938903061224490e+00
    Y_ESGrid1[2,1]  R23       -1
    Y_ESGrid1[2,1]  R25       -1
    Y_ESGrid1[2,1]  R80       1.0588235294117647e+00
    Y_ESGrid1[3,1]  OBJ       -1.3938903061224490e+00
    Y_ESGrid1[3,1]  R36       -1
    Y_ESGrid1[3,1]  R38       -1
    Y_ESGrid1[3,1]  R81       1.0588235294117647e+00
    Y_ESGrid1[4,1]  OBJ       -1.3938903061224490e+00
    Y_ESGrid1[4,1]  R49       -1
    Y_ESGrid1[4,1]  R51       -1
    Y_ESGrid1[4,1]  R82       1.0588235294117647e+00
    Y_ESGrid1[5,1]  OBJ       -1.3938903061224490e+00
    Y_ESGrid1[5,1]  R62       -1
    Y_ESGrid1[5,1]  R64       -1
    Y_ESGrid1[5,1]  R83       1.0588235294117647e+00
    Y_ESGrid1[6,1]  OBJ       -1.3938903061224490e+00
    Y_ESGrid1[6,1]  R75       -1
    Y_ESGrid1[6,1]  R77       -1
    Y_ESGrid2[1,1]  OBJ       -1.3938903061224490e+00
    Y_ESGrid2[1,1]  R94       -1
    Y_ESGrid2[1,1]  R96       -1
    Y_ESGrid2[1,1]  R163      1.0588235294117647e+00
    Y_ESGrid2[2,1]  OBJ       -1.3938903061224490e+00
    Y_ESGrid2[2,1]  R107      -1
    Y_ESGrid2[2,1]  R109      -1
    Y_ESGrid2[2,1]  R164      1.0588235294117647e+00
    Y_ESGrid2[3,1]  OBJ       -1.3938903061224490e+00
    Y_ESGrid2[3,1]  R120      -1
    Y_ESGrid2[3,1]  R122      -1
    Y_ESGrid2[3,1]  R165      1.0588235294117647e+00
    Y_ESGrid2[4,1]  OBJ       -1.3938903061224490e+00
    Y_ESGrid2[4,1]  R133      -1
    Y_ESGrid2[4,1]  R135      -1
    Y_ESGrid2[4,1]  R166      1.0588235294117647e+00
    Y_ESGrid2[5,1]  OBJ       -1.3938903061224490e+00
    Y_ESGrid2[5,1]  R146      -1
    Y_ESGrid2[5,1]  R148      -1
    Y_ESGrid2[5,1]  R167      1.0588235294117647e+00
    Y_ESGrid2[6,1]  OBJ       -1.3938903061224490e+00
    Y_ESGrid2[6,1]  R159      -1
    Y_ESGrid2[6,1]  R161      -1
    Y_E1[1,1]  R0        1
    Y_E1[1,1]  R1        1
    Y_E1[1,1]  R2        -1
    Y_E1[1,1]  R8        1
    Y_E1[1,1]  R79       -1
    Y_E1[2,1]  R14       1
    Y_E1[2,1]  R15       -1
    Y_E1[2,1]  R21       1
    Y_E1[2,1]  R79       1
    Y_E1[2,1]  R80       -1
    Y_E1[3,1]  R27       1
    Y_E1[3,1]  R28       -1
    Y_E1[3,1]  R34       1
    Y_E1[3,1]  R80       1
    Y_E1[3,1]  R81       -1
    Y_E1[4,1]  R40       1
    Y_E1[4,1]  R41       -1
    Y_E1[4,1]  R47       1
    Y_E1[4,1]  R81       1
    Y_E1[4,1]  R82       -1
    Y_E1[5,1]  R53       1
    Y_E1[5,1]  R54       -1
    Y_E1[5,1]  R60       1
    Y_E1[5,1]  R82       1
    Y_E1[5,1]  R83       -1
    Y_E1[6,1]  R66       1
    Y_E1[6,1]  R67       -1
    Y_E1[6,1]  R73       1
    Y_E1[6,1]  R83       1
    Y_E2[1,1]  R84       1
    Y_E2[1,1]  R85       1
    Y_E2[1,1]  R86       -1
    Y_E2[1,1]  R92       1
    Y_E2[1,1]  R163      -1
    Y_E2[2,1]  R98       1
    Y_E2[2,1]  R99       -1
    Y_E2[2,1]  R105      1
    Y_E2[2,1]  R163      1
    Y_E2[2,1]  R164      -1
    Y_E2[3,1]  R111      1
    Y_E2[3,1]  R112      -1
    Y_E2[3,1]  R118      1
    Y_E2[3,1]  R164      1
    Y_E2[3,1]  R165      -1
    Y_E2[4,1]  R124      1
    Y_E2[4,1]  R125      -1
    Y_E2[4,1]  R131      1
    Y_E2[4,1]  R165      1
    Y_E2[4,1]  R166      -1
    Y_E2[5,1]  R137      1
    Y_E2[5,1]  R138      -1
    Y_E2[5,1]  R144      1
    Y_E2[5,1]  R166      1
    Y_E2[5,1]  R167      -1
    Y_E2[6,1]  R150      1
    Y_E2[6,1]  R151      -1
    Y_E2[6,1]  R157      1
    Y_E2[6,1]  R167      1
    Y_LH1[1,1,1]  OBJ       -5.4361721938775505e+00
    Y_LH1[1,1,1]  R5        1
    Y_LH1[1,1,1]  R6        1
    Y_LH1[1,2,1]  OBJ       -5.4361721938775505e+00
    Y_LH1[1,2,1]  R18       1
    Y_LH1[1,2,1]  R19       1
    Y_LH1[1,3,1]  OBJ       -5.4361721938775505e+00
    Y_LH1[1,3,1]  R31       1
    Y_LH1[1,3,1]  R32       1
    Y_LH1[1,4,1]  OBJ       -5.4361721938775505e+00
    Y_LH1[1,4,1]  R44       1
    Y_LH1[1,4,1]  R45       1
    Y_LH1[1,5,1]  OBJ       -5.4361721938775505e+00
    Y_LH1[1,5,1]  R57       1
    Y_LH1[1,5,1]  R58       1
    Y_LH1[1,6,1]  OBJ       -5.4361721938775505e+00
    Y_LH1[1,6,1]  R70       1
    Y_LH1[1,6,1]  R71       1
    Y_LH2[1,1,1]  OBJ       -5.4361721938775505e+00
    Y_LH2[1,1,1]  R89       1
    Y_LH2[1,1,1]  R90       1
    Y_LH2[1,2,1]  OBJ       -5.4361721938775505e+00
    Y_LH2[1,2,1]  R102      1
    Y_LH2[1,2,1]  R103      1
    Y_LH2[1,3,1]  OBJ       -5.4361721938775505e+00
    Y_LH2[1,3,1]  R115      1
    Y_LH2[1,3,1]  R116      1
    Y_LH2[1,4,1]  OBJ       -5.4361721938775505e+00
    Y_LH2[1,4,1]  R128      1
    Y_LH2[1,4,1]  R129      1
    Y_LH2[1,5,1]  OBJ       -5.4361721938775505e+00
    Y_LH2[1,5,1]  R141      1
    Y_LH2[1,5,1]  R142      1
    Y_LH2[1,6,1]  OBJ       -5.4361721938775505e+00
    Y_LH2[1,6,1]  R154      1
    Y_LH2[1,6,1]  R155      1
    Y_LL1[1,1,1]  OBJ       4.1816709183673471e+00
    Y_LL1[1,1,1]  R6        1
    Y_LL1[1,2,1]  OBJ       4.1816709183673471e+00
    Y_LL1[1,2,1]  R19       1
    Y_LL1[1,3,1]  OBJ       4.1816709183673471e+00
    Y_LL1[1,3,1]  R32       1
    Y_LL1[1,4,1]  OBJ       4.1816709183673471e+00
    Y_LL1[1,4,1]  R45       1
    Y_LL1[1,5,1]  OBJ       4.1816709183673471e+00
    Y_LL1[1,5,1]  R58       1
    Y_LL1[1,6,1]  OBJ       4.1816709183673471e+00
    Y_LL1[1,6,1]  R71       1
    Y_LL2[1,1,1]  OBJ       4.1816709183673471e+00
    Y_LL2[1,1,1]  R90       1
    Y_LL2[1,2,1]  OBJ       4.1816709183673471e+00
    Y_LL2[1,2,1]  R103      1
    Y_LL2[1,3,1]  OBJ       4.1816709183673471e+00
    Y_LL2[1,3,1]  R116      1
    Y_LL2[1,4,1]  OBJ       4.1816709183673471e+00
    Y_LL2[1,4,1]  R129      1
    Y_LL2[1,5,1]  OBJ       4.1816709183673471e+00
    Y_LL2[1,5,1]  R142      1
    Y_LL2[1,6,1]  OBJ       4.1816709183673471e+00
    Y_LL2[1,6,1]  R155      1
    Y_LT1[1,1,1]  OBJ       1.2545012755102041e+00
    Y_LT1[1,1,1]  R6        1
    Y_LT1[1,1,1]  R7        -1
    Y_LT1[1,1,1]  R9        1
    Y_LT1[1,2,1]  OBJ       1.2545012755102041e+00
    Y_LT1[1,2,1]  R6        1
    Y_LT1[1,2,1]  R7        -1
    Y_LT1[1,2,1]  R21       -1
    Y_LT1[1,3,1]  OBJ       1.2545012755102041e+00
    Y_LT1[1,3,1]  R6        1
    Y_LT1[1,3,1]  R7        -1
    Y_LT1[1,3,1]  R34       -1
    Y_LT1[1,4,1]  OBJ       1.2545012755102041e+00
    Y_LT1[1,4,1]  R6        1
    Y_LT1[1,4,1]  R7        -1
    Y_LT1[1,4,1]  R47       -1
    Y_LT1[1,5,1]  OBJ       1.2545012755102041e+00
    Y_LT1[1,5,1]  R6        1
    Y_LT1[1,5,1]  R7        -1
    Y_LT1[1,5,1]  R60       -1
    Y_LT1[1,6,1]  OBJ       1.2545012755102041e+00
    Y_LT1[1,6,1]  R6        1
    Y_LT1[1,6,1]  R7        -1
    Y_LT1[1,6,1]  R73       -1
    Y_LT1[2,1,1]  OBJ       1.2545012755102041e+00
    Y_LT1[2,2,1]  OBJ       1.2545012755102041e+00
    Y_LT1[2,2,1]  R19       1
    Y_LT1[2,2,1]  R20       -1
    Y_LT1[2,2,1]  R22       1
    Y_LT1[2,3,1]  OBJ       1.2545012755102041e+00
    Y_LT1[2,3,1]  R19       1
    Y_LT1[2,3,1]  R20       -1
    Y_LT1[2,3,1]  R34       -1
    Y_LT1[2,4,1]  OBJ       1.2545012755102041e+00
    Y_LT1[2,4,1]  R19       1
    Y_LT1[2,4,1]  R20       -1
    Y_LT1[2,4,1]  R47       -1
    Y_LT1[2,5,1]  OBJ       1.2545012755102041e+00
    Y_LT1[2,5,1]  R19       1
    Y_LT1[2,5,1]  R20       -1
    Y_LT1[2,5,1]  R60       -1
    Y_LT1[2,6,1]  OBJ       1.2545012755102041e+00
    Y_LT1[2,6,1]  R19       1
    Y_LT1[2,6,1]  R20       -1
    Y_LT1[2,6,1]  R73       -1
    Y_LT1[3,1,1]  OBJ       1.2545012755102041e+00
    Y_LT1[3,2,1]  OBJ       1.2545012755102041e+00
    Y_LT1[3,3,1]  OBJ       1.2545012755102041e+00
    Y_LT1[3,3,1]  R32       1
    Y_LT1[3,3,1]  R33       -1
    Y_LT1[3,3,1]  R35       1
    Y_LT1[3,4,1]  OBJ       1.2545012755102041e+00
    Y_LT1[3,4,1]  R32       1
    Y_LT1[3,4,1]  R33       -1
    Y_LT1[3,4,1]  R47       -1
    Y_LT1[3,5,1]  OBJ       1.2545012755102041e+00
    Y_LT1[3,5,1]  R32       1
    Y_LT1[3,5,1]  R33       -1
    Y_LT1[3,5,1]  R60       -1
    Y_LT1[3,6,1]  OBJ       1.2545012755102041e+00
    Y_LT1[3,6,1]  R32       1
    Y_LT1[3,6,1]  R33       -1
    Y_LT1[3,6,1]  R73       -1
    Y_LT1[4,1,1]  OBJ       1.2545012755102041e+00
    Y_LT1[4,2,1]  OBJ       1.2545012755102041e+00
    Y_LT1[4,3,1]  OBJ       1.2545012755102041e+00
    Y_LT1[4,4,1]  OBJ       1.2545012755102041e+00
    Y_LT1[4,4,1]  R45       1
    Y_LT1[4,4,1]  R46       -1
    Y_LT1[4,4,1]  R48       1
    Y_LT1[4,5,1]  OBJ       1.2545012755102041e+00
    Y_LT1[4,5,1]  R45       1
    Y_LT1[4,5,1]  R46       -1
    Y_LT1[4,5,1]  R60       -1
    Y_LT1[4,6,1]  OBJ       1.2545012755102041e+00
    Y_LT1[4,6,1]  R45       1
    Y_LT1[4,6,1]  R46       -1
    Y_LT1[4,6,1]  R73       -1
    Y_LT1[5,1,1]  OBJ       1.2545012755102041e+00
    Y_LT1[5,2,1]  OBJ       1.2545012755102041e+00
    Y_LT1[5,3,1]  OBJ       1.2545012755102041e+00
    Y_LT1[5,4,1]  OBJ       1.2545012755102041e+00
    Y_LT1[5,5,1]  OBJ       1.2545012755102041e+00
    Y_LT1[5,5,1]  R58       1
    Y_LT1[5,5,1]  R59       -1
    Y_LT1[5,5,1]  R61       1
    Y_LT1[5,6,1]  OBJ       1.2545012755102041e+00
    Y_LT1[5,6,1]  R58       1
    Y_LT1[5,6,1]  R59       -1
    Y_LT1[5,6,1]  R73       -1
    Y_LT1[6,1,1]  OBJ       1.2545012755102041e+00
    Y_LT1[6,2,1]  OBJ       1.2545012755102041e+00
    Y_LT1[6,3,1]  OBJ       1.2545012755102041e+00
    Y_LT1[6,4,1]  OBJ       1.2545012755102041e+00
    Y_LT1[6,5,1]  OBJ       1.2545012755102041e+00
    Y_LT1[6,6,1]  OBJ       1.2545012755102041e+00
    Y_LT1[6,6,1]  R71       1
    Y_LT1[6,6,1]  R72       -1
    Y_LT1[6,6,1]  R74       1
    Y_LT2[1,1,1]  OBJ       1.2545012755102041e+00
    Y_LT2[1,1,1]  R90       1
    Y_LT2[1,1,1]  R91       -1
    Y_LT2[1,1,1]  R93       1
    Y_LT2[1,2,1]  OBJ       1.2545012755102041e+00
    Y_LT2[1,2,1]  R90       1
    Y_LT2[1,2,1]  R91       -1
    Y_LT2[1,2,1]  R105      -1
    Y_LT2[1,3,1]  OBJ       1.2545012755102041e+00
    Y_LT2[1,3,1]  R90       1
    Y_LT2[1,3,1]  R91       -1
    Y_LT2[1,3,1]  R118      -1
    Y_LT2[1,4,1]  OBJ       1.2545012755102041e+00
    Y_LT2[1,4,1]  R90       1
    Y_LT2[1,4,1]  R91       -1
    Y_LT2[1,4,1]  R131      -1
    Y_LT2[1,5,1]  OBJ       1.2545012755102041e+00
    Y_LT2[1,5,1]  R90       1
    Y_LT2[1,5,1]  R91       -1
    Y_LT2[1,5,1]  R144      -1
    Y_LT2[1,6,1]  OBJ       1.2545012755102041e+00
    Y_LT2[1,6,1]  R90       1
    Y_LT2[1,6,1]  R91       -1
    Y_LT2[1,6,1]  R157      -1
    Y_LT2[2,1,1]  OBJ       1.2545012755102041e+00
    Y_LT2[2,2,1]  OBJ       1.2545012755102041e+00
    Y_LT2[2,2,1]  R103      1
    Y_LT2[2,2,1]  R104      -1
    Y_LT2[2,2,1]  R106      1
    Y_LT2[2,3,1]  OBJ       1.2545012755102041e+00
    Y_LT2[2,3,1]  R103      1
    Y_LT2[2,3,1]  R104      -1
    Y_LT2[2,3,1]  R118      -1
    Y_LT2[2,4,1]  OBJ       1.2545012755102041e+00
    Y_LT2[2,4,1]  R103      1
    Y_LT2[2,4,1]  R104      -1
    Y_LT2[2,4,1]  R131      -1
    Y_LT2[2,5,1]  OBJ       1.2545012755102041e+00
    Y_LT2[2,5,1]  R103      1
    Y_LT2[2,5,1]  R104      -1
    Y_LT2[2,5,1]  R144      -1
    Y_LT2[2,6,1]  OBJ       1.2545012755102041e+00
    Y_LT2[2,6,1]  R103      1
    Y_LT2[2,6,1]  R104      -1
    Y_LT2[2,6,1]  R157      -1
    Y_LT2[3,1,1]  OBJ       1.2545012755102041e+00
    Y_LT2[3,2,1]  OBJ       1.2545012755102041e+00
    Y_LT2[3,3,1]  OBJ       1.2545012755102041e+00
    Y_LT2[3,3,1]  R116      1
    Y_LT2[3,3,1]  R117      -1
    Y_LT2[3,3,1]  R119      1
    Y_LT2[3,4,1]  OBJ       1.2545012755102041e+00
    Y_LT2[3,4,1]  R116      1
    Y_LT2[3,4,1]  R117      -1
    Y_LT2[3,4,1]  R131      -1
    Y_LT2[3,5,1]  OBJ       1.2545012755102041e+00
    Y_LT2[3,5,1]  R116      1
    Y_LT2[3,5,1]  R117      -1
    Y_LT2[3,5,1]  R144      -1
    Y_LT2[3,6,1]  OBJ       1.2545012755102041e+00
    Y_LT2[3,6,1]  R116      1
    Y_LT2[3,6,1]  R117      -1
    Y_LT2[3,6,1]  R157      -1
    Y_LT2[4,1,1]  OBJ       1.2545012755102041e+00
    Y_LT2[4,2,1]  OBJ       1.2545012755102041e+00
    Y_LT2[4,3,1]  OBJ       1.2545012755102041e+00
    Y_LT2[4,4,1]  OBJ       1.2545012755102041e+00
    Y_LT2[4,4,1]  R129      1
    Y_LT2[4,4,1]  R130      -1
    Y_LT2[4,4,1]  R132      1
    Y_LT2[4,5,1]  OBJ       1.2545012755102041e+00
    Y_LT2[4,5,1]  R129      1
    Y_LT2[4,5,1]  R130      -1
    Y_LT2[4,5,1]  R144      -1
    Y_LT2[4,6,1]  OBJ       1.2545012755102041e+00
    Y_LT2[4,6,1]  R129      1
    Y_LT2[4,6,1]  R130      -1
    Y_LT2[4,6,1]  R157      -1
    Y_LT2[5,1,1]  OBJ       1.2545012755102041e+00
    Y_LT2[5,2,1]  OBJ       1.2545012755102041e+00
    Y_LT2[5,3,1]  OBJ       1.2545012755102041e+00
    Y_LT2[5,4,1]  OBJ       1.2545012755102041e+00
    Y_LT2[5,5,1]  OBJ       1.2545012755102041e+00
    Y_LT2[5,5,1]  R142      1
    Y_LT2[5,5,1]  R143      -1
    Y_LT2[5,5,1]  R145      1
    Y_LT2[5,6,1]  OBJ       1.2545012755102041e+00
    Y_LT2[5,6,1]  R142      1
    Y_LT2[5,6,1]  R143      -1
    Y_LT2[5,6,1]  R157      -1
    Y_LT2[6,1,1]  OBJ       1.2545012755102041e+00
    Y_LT2[6,2,1]  OBJ       1.2545012755102041e+00
    Y_LT2[6,3,1]  OBJ       1.2545012755102041e+00
    Y_LT2[6,4,1]  OBJ       1.2545012755102041e+00
    Y_LT2[6,5,1]  OBJ       1.2545012755102041e+00
    Y_LT2[6,6,1]  OBJ       1.2545012755102041e+00
    Y_LT2[6,6,1]  R155      1
    Y_LT2[6,6,1]  R156      -1
    Y_LT2[6,6,1]  R158      1
RHS
    RHS1      R6        6.369666252
    RHS1      R7        -1.9108998756
    RHS1      R11       -100
    RHS1      R13       -260
    RHS1      R19       6.334672291
    RHS1      R20       -1.9004016873
    RHS1      R24       -100
    RHS1      R26       -260
    RHS1      R32       6.576497718
    RHS1      R33       -1.9729493153999997e+00
    RHS1      R37       -100
    RHS1      R39       -260
    RHS1      R45       6.685389575
    RHS1      R46       -2.0056168725
    RHS1      R50       -100
    RHS1      R52       -260
    RHS1      R58       6.766504443
    RHS1      R59       -2.0299513328999996e+00
    RHS1      R63       -100
    RHS1      R65       -260
    RHS1      R71       6.87547389
    RHS1      R72       -2.062642167
    RHS1      R76       -100
    RHS1      R78       -260
    RHS1      R90       8.2805661276
    RHS1      R91       -2.48416983828
    RHS1      R95       -150
    RHS1      R97       -380
    RHS1      R103      8.2350739783
    RHS1      R104      -2.4705221934900004e+00
    RHS1      R108      -150
    RHS1      R110      -380
    RHS1      R116      8.5494470334
    RHS1      R117      -2.56483411002
    RHS1      R121      -150
    RHS1      R123      -380
    RHS1      R129      8.6910064475000013e+00
    RHS1      R130      -2.60730193425
    RHS1      R134      -150
    RHS1      R136      -380
    RHS1      R142      8.7964557759
    RHS1      R143      -2.63893673277
    RHS1      R147      -150
    RHS1      R149      -380
    RHS1      R155      8.938116057
    RHS1      R156      -2.6814348171
    RHS1      R160      -150
    RHS1      R162      -380
BOUNDS
ENDATA
